unknown
(model
; cardinality of BoundSet is 2
(declare-sort BoundSet 0)
; rep: @uc_BoundSet_0
; rep: @uc_BoundSet_1
; cardinality of UnboundSet is 1
(declare-sort UnboundSet 0)
(declare-fun groundTerm_3 () UnboundSet)
(define-fun IsRedHaired ((BOUND_VARIABLE_431 BoundSet)) Bool true)
(define-fun StaplesPapers ((BOUND_VARIABLE_431 BoundSet)) Bool true)
(define-fun IsWorkingOnComputer ((BOUND_VARIABLE_431 BoundSet)) Bool false)
)
sat
(model
; cardinality of BoundSet is 1
(declare-sort BoundSet 0)
; rep: @uc_BoundSet_0
; cardinality of UnboundSet is 1
(declare-sort UnboundSet 0)
(declare-fun groundTerm_6 () UnboundSet)
(define-fun IsRedHaired ((BOUND_VARIABLE_445 BoundSet)) Bool true)
(define-fun StaplesPapers ((BOUND_VARIABLE_445 BoundSet)) Bool true)
(define-fun IsWorkingOnComputer ((BOUND_VARIABLE_445 BoundSet)) Bool false)
)
